
Gurobi 9.5.2 (win64) logging started Wed Mar 29 12:08:11 2023

Set parameter LogFile to value "continuous_model_result/Integer_frame29246_T=15_[1, 1, 1, 1]_no_control_constraint.log"
Set parameter DisplayInterval to value 1
Gurobi Optimizer version 9.5.2 build v9.5.2rc0 (win64)
Thread count: 4 physical cores, 8 logical processors, using up to 8 threads
Optimize a model with 75154 rows, 33405 columns and 444338 nonzeros
Model fingerprint: 0x4f6decf0
Variable types: 2550 continuous, 30855 integer (27345 binary)
Coefficient statistics:
  Matrix range     [1e+00, 3e+02]
  Objective range  [1e+00, 1e+00]
  Bounds range     [1e+00, 1e+02]
  RHS range        [1e+00, 3e+02]
Presolve removed 9471 rows and 3002 columns
Presolve time: 0.65s
Presolved: 65683 rows, 30403 columns, 331094 nonzeros
Variable types: 0 continuous, 30403 integer (27965 binary)

Deterministic concurrent LP optimizer: primal and dual simplex (primal and dual model)
Showing first log only...


Root simplex log...

Iteration    Objective       Primal Inf.    Dual Inf.      Time
       0   -1.4200000e+02   1.041500e+03   2.711373e+09      2s
    6200   -6.3322891e+01   5.040576e+01   5.310435e+08      2s
    9345   -1.7471971e+02   6.925972e+00   3.017799e+08      3s
Concurrent spin time: 0.32s

Solved with dual simplex (primal model)

Root relaxation: objective 0.000000e+00, 25601 iterations, 2.45 seconds (1.60 work units)

    Nodes    |    Current Node    |     Objective Bounds      |     Work
 Expl Unexpl |  Obj  Depth IntInf | Incumbent    BestBd   Gap | It/Node Time

     0     0    0.00000    0   33          -    0.00000      -     -    3s
     0     0    0.08683    0  561          -    0.08683      -     -    6s
     0     0    0.08759    0  554          -    0.08759      -     -    7s
     0     0    2.57083    0  377          -    2.57083      -     -    9s
     0     0    2.57083    0  319          -    2.57083      -     -   10s
     0     0    4.49470    0  436          -    4.49470      -     -   11s
     0     0    4.49688    0  439          -    4.49688      -     -   12s
     0     0    4.49688    0  247          -    4.49688      -     -   12s
     0     0    5.00000    0  157          -    5.00000      -     -   13s
     0     0    5.01390    0  341          -    5.01390      -     -   14s
     0     0    5.15000    0  352          -    5.15000      -     -   14s
     0     0    5.15000    0  327          -    5.15000      -     -   14s
     0     0    5.33333    0  255          -    5.33333      -     -   16s
     0     0    5.33333    0  280          -    5.33333      -     -   16s
     0     0    5.40000    0  270          -    5.40000      -     -   17s
     0     0    5.42857    0  283          -    5.42857      -     -   18s
     0     0    5.42857    0  287          -    5.42857      -     -   18s
     0     0    5.42857    0  326          -    5.42857      -     -   18s
     0     0    5.42857    0  297          -    5.42857      -     -   19s
     0     0    5.42857    0  304          -    5.42857      -     -   20s
     0     0    5.42857    0  305          -    5.42857      -     -   20s
     0     0    5.50000    0  268          -    5.50000      -     -   22s
     0     0    5.50000    0  273          -    5.50000      -     -   22s
     0     0    5.50000    0  337          -    5.50000      -     -   23s
     0     0    5.50000    0  342          -    5.50000      -     -   23s
     0     0    5.50000    0  321          -    5.50000      -     -   24s
H    0     0                       6.0000000    5.50000  8.33%     -   25s
     0     0    5.50000    0  287    6.00000    5.50000  8.33%     -   25s

Cutting planes:
  Gomory: 24
  Cover: 237
  Implied bound: 27
  Clique: 418
  MIR: 598
  StrongCG: 1
  Zero half: 29
  RLT: 3
  Relax-and-lift: 10

Explored 1 nodes (34129 simplex iterations) in 25.31 seconds (18.01 work units)
Thread count was 8 (of 8 available processors)

Solution count 1: 6 

Optimal solution found (tolerance 1.00e-04)
Best objective 6.000000000000e+00, best bound 6.000000000000e+00, gap 0.0000%
EMV不同时刻的横向位置：[2.0, 1.0, 1.0, 1.0, 1.0, 1.0, 1.0, 1.0, 1.0, 1.0, 1.0, 1.0, 1.0, 1.0, 1.0, 1.0, 1.0, 1.0, 1.0, 1.0, 1.0, 1.0, 1.0, 1.0, 1.0, 1.0, 1.0, 1.0, 1.0, 1.0]
OV不同时刻的横向位置：[1.0, 3.0, 2.0, 3.0, 3.0, 1.0, 2.0, 3.0, 2.0, 3.0, 1.0, 3.0, 2.0, 3.0, 1.0, 2.0, 3.0, 2.0, 3.0, 2.0, 3.0, 3.0, 1.0, 2.0, 3.0, 2.0, 1.0, 3.0, 2.0, 3.0, 2.0, 1.0, 2.0, 3.0, 2.0, 3.0, 1.0, 2.0, 3.0, 2.0, 1.0, 3.0, 1.0, 3.0, 2.0, 1.0, 3.0, 1.0, 2.0, 2.0, 3.0, 1.0, 2.0, 3.0, 1.0, 3.0, 1.0, 3.0, 2.0, 3.0, 3.0, 1.0, 2.0, 3.0, 2.0, 3.0, 1.0, 3.0, 2.0, 3.0, 1.0, 2.0, 3.0, 2.0, 3.0, 2.0, 3.0, 3.0, 1.0, 2.0, 3.0, 2.0, 1.0, 3.0, 2.0, 3.0, 2.0, 1.0, 2.0, 3.0, 2.0, 3.0, 1.0, 2.0, 3.0, 2.0, 1.0, 3.0, 1.0, 3.0, 2.0, 1.0, 3.0, 1.0, 2.0, 2.0, 3.0, 1.0, 2.0, 3.0, 1.0, 3.0, 1.0, 3.0, 2.0, 3.0, 3.0, 1.0, 2.0, 3.0, 2.0, 3.0, 1.0, 3.0, 2.0, 3.0, 1.0, 2.0, 3.0, 2.0, 3.0, 2.0, 3.0, 3.0, 1.0, 2.0, 3.0, 2.0, 1.0, 3.0, 2.0, 3.0, 2.0, 1.0, 2.0, 3.0, 2.0, 3.0, 1.0, 2.0, 3.0, 2.0, 1.0, 3.0, 1.0, 3.0, 2.0, 1.0, 3.0, 1.0, 2.0, 2.0, 3.0, 1.0, 2.0, 3.0, 1.0, 3.0, 1.0, 3.0, 2.0, 3.0, 3.0, 1.0, 2.0, 3.0, 2.0, 3.0, 1.0, 3.0, 2.0, 3.0, 1.0, 2.0, 3.0, 2.0, 3.0, 2.0, 3.0, 3.0, 1.0, 2.0, 3.0, 2.0, 1.0, 3.0, 2.0, 3.0, 2.0, 1.0, 2.0, 3.0, 2.0, 3.0, 1.0, 2.0, 3.0, 2.0, 1.0, 3.0, 1.0, 3.0, 2.0, 1.0, 3.0, 1.0, 2.0, 2.0, 3.0, 1.0, 2.0, 3.0, 1.0, 3.0, 1.0, 3.0, 2.0, 3.0, 3.0, 1.0, 2.0, 3.0, 2.0, 3.0, 2.0, 3.0, 2.0, 3.0, 1.0, 2.0, 3.0, 2.0, 3.0, 2.0, 3.0, 3.0, 1.0, 2.0, 3.0, 2.0, 1.0, 3.0, 2.0, 3.0, 2.0, 1.0, 2.0, 3.0, 2.0, 3.0, 1.0, 2.0, 3.0, 2.0, 1.0, 3.0, 1.0, 3.0, 2.0, 1.0, 3.0, 1.0, 2.0, 2.0, 3.0, 1.0, 2.0, 3.0, 1.0, 3.0, 1.0, 3.0, 2.0, 3.0, 3.0, 1.0, 2.0, 3.0, 2.0, 3.0, 2.0, 3.0, 2.0, 3.0, 1.0, 2.0, 3.0, 2.0, 3.0, 2.0, 3.0, 3.0, 1.0, 2.0, 3.0, 2.0, 1.0, 3.0, 2.0, 3.0, 2.0, 1.0, 2.0, 3.0, 2.0, 3.0, 1.0, 2.0, 3.0, 2.0, 1.0, 3.0, 1.0, 3.0, 2.0, 1.0, 3.0, 1.0, 2.0, 2.0, 3.0, 1.0, 2.0, 3.0, 1.0, 3.0, 1.0, 3.0, 2.0, 3.0, 3.0, 1.0, 2.0, 3.0, 2.0, 3.0, 2.0, 3.0, 2.0, 3.0, 1.0, 2.0, 3.0, 2.0, 3.0, 2.0, 3.0, 3.0, 1.0, 2.0, 3.0, 2.0, 1.0, 3.0, 2.0, 3.0, 2.0, 1.0, 2.0, 3.0, 2.0, 3.0, 1.0, 2.0, 3.0, 2.0, 1.0, 3.0, 1.0, 3.0, 2.0, 1.0, 3.0, 1.0, 2.0, 2.0, 3.0, 1.0, 2.0, 3.0, 1.0, 3.0, 1.0, 3.0, 2.0, 3.0, 3.0, 1.0, 2.0, 3.0, 2.0, 3.0, 2.0, 3.0, 2.0, 3.0, 1.0, 2.0, 3.0, 2.0, 3.0, 2.0, 3.0, 3.0, 1.0, 2.0, 3.0, 2.0, 1.0, 3.0, 2.0, 3.0, 2.0, 1.0, 2.0, 3.0, 2.0, 3.0, 1.0, 2.0, 3.0, 2.0, 1.0, 3.0, 1.0, 3.0, 2.0, 1.0, 3.0, 1.0, 2.0, 2.0, 3.0, 1.0, 2.0, 3.0, 1.0, 3.0, 1.0, 3.0, 2.0, 3.0, 3.0, 1.0, 2.0, 3.0, 2.0, 3.0, 2.0, 3.0, 2.0, 3.0, 1.0, 2.0, 3.0, 2.0, 3.0, 2.0, 3.0, 3.0, 1.0, 2.0, 3.0, 2.0, 1.0, 3.0, 2.0, 3.0, 2.0, 1.0, 2.0, 3.0, 2.0, 3.0, 1.0, 2.0, 3.0, 2.0, 1.0, 3.0, 1.0, 3.0, 2.0, 1.0, 3.0, 1.0, 2.0, 2.0, 3.0, 1.0, 2.0, 3.0, 1.0, 3.0, 1.0, 3.0, 2.0, 3.0, 3.0, 1.0, 2.0, 3.0, 2.0, 3.0, 2.0, 3.0, 2.0, 3.0, 1.0, 2.0, 3.0, 2.0, 3.0, 2.0, 3.0, 3.0, 1.0, 2.0, 3.0, 2.0, 1.0, 3.0, 2.0, 3.0, 2.0, 1.0, 2.0, 3.0, 2.0, 3.0, 1.0, 2.0, 3.0, 2.0, 1.0, 3.0, 1.0, 3.0, 2.0, 1.0, 3.0, 1.0, 2.0, 2.0, 3.0, 1.0, 2.0, 3.0, 1.0, 3.0, 1.0, 3.0, 2.0, 3.0, 3.0, 1.0, 2.0, 3.0, 2.0, 3.0, 2.0, 3.0, 2.0, 3.0, 1.0, 2.0, 3.0, 2.0, 3.0, 2.0, 3.0, 3.0, 1.0, 2.0, 3.0, 2.0, 1.0, 3.0, 2.0, 3.0, 2.0, 1.0, 2.0, 3.0, 2.0, 3.0, 1.0, 2.0, 3.0, 2.0, 1.0, 3.0, 1.0, 3.0, 2.0, 1.0, 3.0, 1.0, 2.0, 2.0, 3.0, 1.0, 2.0, 3.0, 1.0, 3.0, 1.0, 3.0, 2.0, 3.0, 3.0, 1.0, 2.0, 3.0, 2.0, 3.0, 2.0, 3.0, 2.0, 3.0, 1.0, 2.0, 3.0, 2.0, 3.0, 2.0, 3.0, 3.0, 1.0, 2.0, 3.0, 2.0, 1.0, 3.0, 2.0, 3.0, 2.0, 1.0, 2.0, 3.0, 2.0, 3.0, 1.0, 2.0, 3.0, 2.0, 1.0, 3.0, 1.0, 3.0, 2.0, 1.0, 3.0, 1.0, 2.0, 2.0, 3.0, 1.0, 2.0, 3.0, 1.0, 3.0, 1.0, 3.0, 2.0, 3.0, 3.0, 1.0, 2.0, 3.0, 2.0, 3.0, 2.0, 3.0, 2.0, 3.0, 1.0, 2.0, 3.0, 2.0, 3.0, 2.0, 3.0, 3.0, 1.0, 2.0, 3.0, 2.0, 1.0, 3.0, 2.0, 3.0, 2.0, 1.0, 2.0, 3.0, 2.0, 3.0, 1.0, 2.0, 3.0, 2.0, 1.0, 3.0, 1.0, 3.0, 2.0, 1.0, 3.0, 1.0, 2.0, 2.0, 3.0, 1.0, 2.0, 3.0, 1.0, 3.0, 1.0, 3.0, 2.0, 3.0, 3.0, 1.0, 2.0, 3.0, 2.0, 3.0, 2.0, 3.0, 2.0, 3.0, 1.0, 2.0, 3.0, 2.0, 3.0, 2.0, 3.0, 3.0, 1.0, 2.0, 3.0, 2.0, 1.0, 3.0, 2.0, 3.0, 2.0, 1.0, 2.0, 3.0, 2.0, 3.0, 1.0, 2.0, 3.0, 2.0, 1.0, 3.0, 1.0, 3.0, 2.0, 1.0, 3.0, 1.0, 2.0, 2.0, 3.0, 1.0, 2.0, 3.0, 1.0, 3.0, 1.0, 3.0, 2.0, 3.0, 3.0, 1.0, 2.0, 3.0, 2.0, 3.0, 2.0, 3.0, 2.0, 3.0, 1.0, 2.0, 3.0, 2.0, 3.0, 2.0, 3.0, 3.0, 1.0, 2.0, 3.0, 2.0, 1.0, 3.0, 2.0, 3.0, 2.0, 1.0, 2.0, 3.0, 2.0, 3.0, 1.0, 2.0, 3.0, 2.0, 1.0, 3.0, 1.0, 3.0, 2.0, 1.0, 3.0, 1.0, 2.0, 2.0, 3.0, 1.0, 2.0, 3.0, 1.0, 3.0]
OV不同时刻的纵向位置：[4.0, 5.0, 8.0, 8.0, 10.0, 12.0, 11.0, 12.0, 15.0, 15.0, 18.0, 18.0, 20.0, 21.0, 24.0, 23.0, 24.0, 26.0, 28.0, 30.0, 30.0, 31.0, 32.0, 32.0, 33.0, 36.0, 38.0, 37.0, 38.0, 39.0, 41.0, 44.0, 44.0, 44.0, 45.0, 46.0, 48.0, 48.0, 48.0, 50.0, 51.0, 52.0, 55.0, 55.0, 57.0, 59.0, 61.0, 61.0, 61.0, 63.0, 63.0, 65.0, 66.0, 67.0, 69.0, 71.0, 6.0, 6.0, 9.0, 9.0, 11.0, 14.0, 12.0, 13.0, 16.0, 16.0, 19.0, 19.0, 21.0, 22.0, 26.0, 24.0, 25.0, 27.0, 29.0, 31.0, 31.0, 32.0, 33.0, 33.0, 34.0, 37.0, 40.0, 38.0, 39.0, 40.0, 42.0, 45.0, 45.0, 45.0, 46.0, 47.0, 49.0, 49.0, 49.0, 51.0, 52.0, 53.0, 56.0, 56.0, 58.0, 60.0, 62.0, 62.0, 62.0, 64.0, 64.0, 66.0, 67.0, 69.0, 70.0, 73.0, 8.0, 7.0, 10.0, 10.0, 12.0, 16.0, 13.0, 14.0, 17.0, 17.0, 20.0, 20.0, 22.0, 23.0, 28.0, 25.0, 26.0, 28.0, 30.0, 32.0, 32.0, 33.0, 34.0, 34.0, 35.0, 38.0, 42.0, 39.0, 40.0, 41.0, 43.0, 46.0, 46.0, 46.0, 47.0, 48.0, 50.0, 50.0, 50.0, 52.0, 53.0, 54.0, 57.0, 57.0, 59.0, 61.0, 63.0, 63.0, 63.0, 65.0, 65.0, 67.0, 68.0, 71.0, 71.0, 75.0, 10.0, 8.0, 11.0, 11.0, 13.0, 18.0, 14.0, 15.0, 18.0, 18.0, 21.0, 21.0, 23.0, 24.0, 30.0, 26.0, 27.0, 29.0, 31.0, 33.0, 33.0, 34.0, 35.0, 35.0, 36.0, 39.0, 44.0, 40.0, 41.0, 42.0, 44.0, 47.0, 47.0, 47.0, 48.0, 49.0, 51.0, 51.0, 51.0, 53.0, 54.0, 55.0, 58.0, 58.0, 60.0, 62.0, 64.0, 64.0, 64.0, 66.0, 66.0, 68.0, 69.0, 73.0, 72.0, 77.0, 12.0, 9.0, 12.0, 12.0, 14.0, 20.0, 15.0, 16.0, 19.0, 19.0, 22.0, 22.0, 24.0, 25.0, 32.0, 27.0, 28.0, 30.0, 32.0, 34.0, 34.0, 35.0, 36.0, 36.0, 37.0, 40.0, 46.0, 41.0, 42.0, 43.0, 45.0, 48.0, 48.0, 48.0, 49.0, 50.0, 52.0, 52.0, 52.0, 54.0, 55.0, 56.0, 59.0, 59.0, 61.0, 63.0, 65.0, 65.0, 65.0, 67.0, 67.0, 69.0, 70.0, 75.0, 73.0, 79.0, 14.0, 10.0, 13.0, 13.0, 15.0, 23.0, 16.0, 17.0, 20.0, 20.0, 23.0, 23.0, 25.0, 26.0, 34.0, 28.0, 29.0, 31.0, 33.0, 35.0, 35.0, 36.0, 37.0, 37.0, 38.0, 41.0, 48.0, 42.0, 43.0, 44.0, 46.0, 49.0, 49.0, 49.0, 50.0, 51.0, 53.0, 53.0, 53.0, 55.0, 56.0, 57.0, 60.0, 60.0, 62.0, 64.0, 66.0, 66.0, 66.0, 68.0, 68.0, 70.0, 71.0, 77.0, 74.0, 81.0, 16.0, 11.0, 14.0, 14.0, 16.0, 26.0, 17.0, 18.0, 21.0, 21.0, 24.0, 24.0, 26.0, 27.0, 36.0, 29.0, 30.0, 32.0, 34.0, 36.0, 36.0, 37.0, 38.0, 38.0, 39.0, 42.0, 49.0, 43.0, 44.0, 45.0, 47.0, 50.0, 50.0, 50.0, 51.0, 52.0, 54.0, 54.0, 54.0, 56.0, 57.0, 58.0, 61.0, 61.0, 63.0, 65.0, 67.0, 67.0, 67.0, 69.0, 69.0, 71.0, 72.0, 79.0, 75.0, 83.0, 18.0, 12.0, 15.0, 15.0, 17.0, 29.0, 18.0, 19.0, 22.0, 22.0, 25.0, 25.0, 27.0, 28.0, 38.0, 30.0, 31.0, 33.0, 35.0, 37.0, 37.0, 38.0, 40.0, 39.0, 40.0, 43.0, 50.0, 44.0, 45.0, 46.0, 48.0, 51.0, 51.0, 51.0, 52.0, 53.0, 55.0, 55.0, 55.0, 57.0, 58.0, 59.0, 62.0, 62.0, 64.0, 66.0, 68.0, 68.0, 68.0, 70.0, 70.0, 72.0, 73.0, 81.0, 76.0, 85.0, 20.0, 13.0, 16.0, 16.0, 18.0, 32.0, 19.0, 20.0, 23.0, 23.0, 26.0, 26.0, 28.0, 29.0, 40.0, 31.0, 32.0, 34.0, 36.0, 38.0, 38.0, 39.0, 42.0, 40.0, 41.0, 44.0, 51.0, 45.0, 46.0, 47.0, 49.0, 52.0, 52.0, 52.0, 53.0, 54.0, 56.0, 56.0, 56.0, 58.0, 59.0, 60.0, 63.0, 63.0, 65.0, 67.0, 69.0, 69.0, 69.0, 71.0, 71.0, 73.0, 74.0, 83.0, 77.0, 87.0, 22.0, 14.0, 17.0, 17.0, 19.0, 35.0, 20.0, 21.0, 24.0, 24.0, 27.0, 27.0, 29.0, 30.0, 42.0, 32.0, 33.0, 35.0, 37.0, 39.0, 39.0, 40.0, 44.0, 41.0, 42.0, 45.0, 52.0, 46.0, 47.0, 48.0, 50.0, 53.0, 53.0, 53.0, 54.0, 55.0, 57.0, 57.0, 57.0, 59.0, 60.0, 61.0, 64.0, 64.0, 66.0, 68.0, 70.0, 70.0, 70.0, 72.0, 72.0, 74.0, 75.0, 85.0, 78.0, 89.0, 24.0, 15.0, 18.0, 18.0, 20.0, 38.0, 21.0, 22.0, 25.0, 25.0, 28.0, 28.0, 30.0, 31.0, 44.0, 33.0, 34.0, 36.0, 38.0, 40.0, 40.0, 41.0, 46.0, 42.0, 43.0, 46.0, 53.0, 47.0, 48.0, 49.0, 51.0, 54.0, 54.0, 54.0, 55.0, 56.0, 58.0, 58.0, 58.0, 60.0, 61.0, 62.0, 65.0, 65.0, 67.0, 69.0, 71.0, 71.0, 71.0, 73.0, 73.0, 75.0, 76.0, 87.0, 79.0, 91.0, 26.0, 16.0, 19.0, 19.0, 21.0, 41.0, 22.0, 23.0, 26.0, 26.0, 29.0, 29.0, 31.0, 32.0, 46.0, 34.0, 35.0, 37.0, 39.0, 41.0, 41.0, 42.0, 48.0, 43.0, 44.0, 47.0, 54.0, 48.0, 49.0, 50.0, 52.0, 55.0, 55.0, 55.0, 56.0, 57.0, 59.0, 59.0, 59.0, 61.0, 62.0, 63.0, 66.0, 66.0, 68.0, 70.0, 72.0, 72.0, 72.0, 74.0, 74.0, 76.0, 77.0, 89.0, 80.0, 93.0, 28.0, 17.0, 20.0, 20.0, 22.0, 44.0, 23.0, 24.0, 27.0, 27.0, 30.0, 30.0, 32.0, 33.0, 48.0, 35.0, 36.0, 38.0, 40.0, 42.0, 42.0, 43.0, 50.0, 44.0, 45.0, 48.0, 55.0, 49.0, 50.0, 51.0, 53.0, 56.0, 56.0, 56.0, 57.0, 58.0, 60.0, 60.0, 60.0, 62.0, 63.0, 64.0, 67.0, 67.0, 69.0, 71.0, 73.0, 73.0, 73.0, 75.0, 75.0, 77.0, 78.0, 91.0, 81.0, 95.0, 30.0, 18.0, 21.0, 21.0, 23.0, 47.0, 24.0, 25.0, 28.0, 28.0, 31.0, 31.0, 33.0, 34.0, 50.0, 36.0, 37.0, 39.0, 41.0, 43.0, 43.0, 44.0, 52.0, 45.0, 46.0, 49.0, 56.0, 50.0, 51.0, 52.0, 54.0, 57.0, 57.0, 57.0, 58.0, 59.0, 61.0, 61.0, 61.0, 63.0, 64.0, 65.0, 68.0, 68.0, 70.0, 72.0, 74.0, 74.0, 74.0, 76.0, 76.0, 78.0, 79.0, 93.0, 82.0, 97.0, 32.0, 19.0, 22.0, 22.0, 24.0, 50.0, 25.0, 26.0, 29.0, 29.0, 32.0, 32.0, 34.0, 35.0, 52.0, 37.0, 38.0, 40.0, 42.0, 44.0, 44.0, 45.0, 54.0, 46.0, 47.0, 50.0, 57.0, 51.0, 52.0, 53.0, 55.0, 58.0, 58.0, 58.0, 59.0, 60.0, 62.0, 62.0, 62.0, 64.0, 65.0, 66.0, 69.0, 69.0, 71.0, 73.0, 75.0, 75.0, 75.0, 77.0, 77.0, 79.0, 80.0, 95.0, 83.0, 99.0]
OV不同时刻的速度：[2.0, 1.0, 1.0, 1.0, 1.0, 2.0, 1.0, 1.0, 1.0, 1.0, 1.0, 1.0, 1.0, 1.0, 2.0, 1.0, 1.0, 1.0, 1.0, 1.0, 1.0, 1.0, 1.0, 1.0, 1.0, 1.0, 2.0, 1.0, 1.0, 1.0, 1.0, 1.0, 1.0, 1.0, 1.0, 1.0, 1.0, 1.0, 1.0, 1.0, 1.0, 1.0, 1.0, 1.0, 1.0, 1.0, 1.0, 1.0, 1.0, 1.0, 1.0, 1.0, 1.0, 2.0, 1.0, 2.0, 2.0, 1.0, 1.0, 1.0, 1.0, 2.0, 1.0, 1.0, 1.0, 1.0, 1.0, 1.0, 1.0, 1.0, 2.0, 1.0, 1.0, 1.0, 1.0, 1.0, 1.0, 1.0, 1.0, 1.0, 1.0, 1.0, 2.0, 1.0, 1.0, 1.0, 1.0, 1.0, 1.0, 1.0, 1.0, 1.0, 1.0, 1.0, 1.0, 1.0, 1.0, 1.0, 1.0, 1.0, 1.0, 1.0, 1.0, 1.0, 1.0, 1.0, 1.0, 1.0, 1.0, 2.0, 1.0, 2.0, 2.0, 1.0, 1.0, 1.0, 1.0, 2.0, 1.0, 1.0, 1.0, 1.0, 1.0, 1.0, 1.0, 1.0, 2.0, 1.0, 1.0, 1.0, 1.0, 1.0, 1.0, 1.0, 1.0, 1.0, 1.0, 1.0, 2.0, 1.0, 1.0, 1.0, 1.0, 1.0, 1.0, 1.0, 1.0, 1.0, 1.0, 1.0, 1.0, 1.0, 1.0, 1.0, 1.0, 1.0, 1.0, 1.0, 1.0, 1.0, 1.0, 1.0, 1.0, 1.0, 1.0, 2.0, 1.0, 2.0, 2.0, 1.0, 1.0, 1.0, 1.0, 2.0, 1.0, 1.0, 1.0, 1.0, 1.0, 1.0, 1.0, 1.0, 2.0, 1.0, 1.0, 1.0, 1.0, 1.0, 1.0, 1.0, 1.0, 1.0, 1.0, 1.0, 2.0, 1.0, 1.0, 1.0, 1.0, 1.0, 1.0, 1.0, 1.0, 1.0, 1.0, 1.0, 1.0, 1.0, 1.0, 1.0, 1.0, 1.0, 1.0, 1.0, 1.0, 1.0, 1.0, 1.0, 1.0, 1.0, 1.0, 2.0, 1.0, 2.0, 2.0, 1.0, 1.0, 1.0, 1.0, 3.0, 1.0, 1.0, 1.0, 1.0, 1.0, 1.0, 1.0, 1.0, 2.0, 1.0, 1.0, 1.0, 1.0, 1.0, 1.0, 1.0, 1.0, 1.0, 1.0, 1.0, 2.0, 1.0, 1.0, 1.0, 1.0, 1.0, 1.0, 1.0, 1.0, 1.0, 1.0, 1.0, 1.0, 1.0, 1.0, 1.0, 1.0, 1.0, 1.0, 1.0, 1.0, 1.0, 1.0, 1.0, 1.0, 1.0, 1.0, 2.0, 1.0, 2.0, 2.0, 1.0, 1.0, 1.0, 1.0, 3.0, 1.0, 1.0, 1.0, 1.0, 1.0, 1.0, 1.0, 1.0, 2.0, 1.0, 1.0, 1.0, 1.0, 1.0, 1.0, 1.0, 1.0, 1.0, 1.0, 1.0, 1.0, 1.0, 1.0, 1.0, 1.0, 1.0, 1.0, 1.0, 1.0, 1.0, 1.0, 1.0, 1.0, 1.0, 1.0, 1.0, 1.0, 1.0, 1.0, 1.0, 1.0, 1.0, 1.0, 1.0, 1.0, 1.0, 1.0, 2.0, 1.0, 2.0, 2.0, 1.0, 1.0, 1.0, 1.0, 3.0, 1.0, 1.0, 1.0, 1.0, 1.0, 1.0, 1.0, 1.0, 2.0, 1.0, 1.0, 1.0, 1.0, 1.0, 1.0, 1.0, 2.0, 1.0, 1.0, 1.0, 1.0, 1.0, 1.0, 1.0, 1.0, 1.0, 1.0, 1.0, 1.0, 1.0, 1.0, 1.0, 1.0, 1.0, 1.0, 1.0, 1.0, 1.0, 1.0, 1.0, 1.0, 1.0, 1.0, 1.0, 1.0, 1.0, 1.0, 2.0, 1.0, 2.0, 2.0, 1.0, 1.0, 1.0, 1.0, 3.0, 1.0, 1.0, 1.0, 1.0, 1.0, 1.0, 1.0, 1.0, 2.0, 1.0, 1.0, 1.0, 1.0, 1.0, 1.0, 1.0, 2.0, 1.0, 1.0, 1.0, 1.0, 1.0, 1.0, 1.0, 1.0, 1.0, 1.0, 1.0, 1.0, 1.0, 1.0, 1.0, 1.0, 1.0, 1.0, 1.0, 1.0, 1.0, 1.0, 1.0, 1.0, 1.0, 1.0, 1.0, 1.0, 1.0, 1.0, 2.0, 1.0, 2.0, 2.0, 1.0, 1.0, 1.0, 1.0, 3.0, 1.0, 1.0, 1.0, 1.0, 1.0, 1.0, 1.0, 1.0, 2.0, 1.0, 1.0, 1.0, 1.0, 1.0, 1.0, 1.0, 2.0, 1.0, 1.0, 1.0, 1.0, 1.0, 1.0, 1.0, 1.0, 1.0, 1.0, 1.0, 1.0, 1.0, 1.0, 1.0, 1.0, 1.0, 1.0, 1.0, 1.0, 1.0, 1.0, 1.0, 1.0, 1.0, 1.0, 1.0, 1.0, 1.0, 1.0, 2.0, 1.0, 2.0, 2.0, 1.0, 1.0, 1.0, 1.0, 3.0, 1.0, 1.0, 1.0, 1.0, 1.0, 1.0, 1.0, 1.0, 2.0, 1.0, 1.0, 1.0, 1.0, 1.0, 1.0, 1.0, 2.0, 1.0, 1.0, 1.0, 1.0, 1.0, 1.0, 1.0, 1.0, 1.0, 1.0, 1.0, 1.0, 1.0, 1.0, 1.0, 1.0, 1.0, 1.0, 1.0, 1.0, 1.0, 1.0, 1.0, 1.0, 1.0, 1.0, 1.0, 1.0, 1.0, 1.0, 2.0, 1.0, 2.0, 2.0, 1.0, 1.0, 1.0, 1.0, 3.0, 1.0, 1.0, 1.0, 1.0, 1.0, 1.0, 1.0, 1.0, 2.0, 1.0, 1.0, 1.0, 1.0, 1.0, 1.0, 1.0, 2.0, 1.0, 1.0, 1.0, 1.0, 1.0, 1.0, 1.0, 1.0, 1.0, 1.0, 1.0, 1.0, 1.0, 1.0, 1.0, 1.0, 1.0, 1.0, 1.0, 1.0, 1.0, 1.0, 1.0, 1.0, 1.0, 1.0, 1.0, 1.0, 1.0, 1.0, 2.0, 1.0, 2.0, 2.0, 1.0, 1.0, 1.0, 1.0, 3.0, 1.0, 1.0, 1.0, 1.0, 1.0, 1.0, 1.0, 1.0, 2.0, 1.0, 1.0, 1.0, 1.0, 1.0, 1.0, 1.0, 2.0, 1.0, 1.0, 1.0, 1.0, 1.0, 1.0, 1.0, 1.0, 1.0, 1.0, 1.0, 1.0, 1.0, 1.0, 1.0, 1.0, 1.0, 1.0, 1.0, 1.0, 1.0, 1.0, 1.0, 1.0, 1.0, 1.0, 1.0, 1.0, 1.0, 1.0, 2.0, 1.0, 2.0, 2.0, 1.0, 1.0, 1.0, 1.0, 3.0, 1.0, 1.0, 1.0, 1.0, 1.0, 1.0, 1.0, 1.0, 2.0, 1.0, 1.0, 1.0, 1.0, 1.0, 1.0, 1.0, 2.0, 1.0, 1.0, 1.0, 1.0, 1.0, 1.0, 1.0, 1.0, 1.0, 1.0, 1.0, 1.0, 1.0, 1.0, 1.0, 1.0, 1.0, 1.0, 1.0, 1.0, 1.0, 1.0, 1.0, 1.0, 1.0, 1.0, 1.0, 1.0, 1.0, 1.0, 2.0, 1.0, 2.0, 2.0, 1.0, 1.0, 1.0, 1.0, 3.0, 1.0, 1.0, 1.0, 1.0, 1.0, 1.0, 1.0, 1.0, 2.0, 1.0, 1.0, 1.0, 1.0, 1.0, 1.0, 1.0, 2.0, 1.0, 1.0, 1.0, 1.0, 1.0, 1.0, 1.0, 1.0, 1.0, 1.0, 1.0, 1.0, 1.0, 1.0, 1.0, 1.0, 1.0, 1.0, 1.0, 1.0, 1.0, 1.0, 1.0, 1.0, 1.0, 1.0, 1.0, 1.0, 1.0, 1.0, 2.0, 1.0, 2.0, 2.0, 1.0, 1.0, 1.0, 1.0, 3.0, 1.0, 1.0, 1.0, 1.0, 1.0, 1.0, 1.0, 1.0, 2.0, 1.0, 1.0, 1.0, 1.0, 1.0, 1.0, 1.0, 2.0, 1.0, 1.0, 1.0, 1.0, 1.0, 1.0, 1.0, 1.0, 1.0, 1.0, 1.0, 1.0, 1.0, 1.0, 1.0, 1.0, 1.0, 1.0, 1.0, 1.0, 1.0, 1.0, 1.0, 1.0, 1.0, 1.0, 1.0, 1.0, 1.0, 1.0, 2.0, 1.0, 2.0]
OV加速：{(4, 6): 1.0, (6, 23): 1.0}
OV减速：{(0, 47): 1.0, (5, 27): 1.0}
OV左变道：{(4, 11): 1.0}
OV右变道：{}
EMV左变道：{}
EMV右变道：{(1, 1): 1.0}
求解时间：25.340596914291382
下一周期EMV初始状态：[[46, 1.0, 3], [48, 1.0, 3]]
下一周期OV初始状态：[[32.0, 1.0, 2.0], [19.0, 3.0, 1.0], [22.0, 2.0, 1.0], [22.0, 3.0, 1.0], [24.0, 3.0, 1.0], [50.0, 1.0, 3.0], [25.0, 2.0, 1.0], [26.0, 3.0, 1.0], [29.0, 2.0, 1.0], [29.0, 3.0, 1.0], [32.0, 2.0, 1.0], [32.0, 3.0, 1.0], [34.0, 2.0, 1.0], [35.0, 3.0, 1.0], [52.0, 1.0, 2.0], [37.0, 2.0, 1.0], [38.0, 3.0, 1.0], [40.0, 2.0, 1.0], [42.0, 3.0, 1.0], [44.0, 2.0, 1.0], [44.0, 3.0, 1.0], [45.0, 3.0, 1.0], [54.0, 1.0, 2.0], [46.0, 2.0, 1.0], [47.0, 3.0, 1.0], [50.0, 2.0, 1.0], [57.0, 1.0, 1.0], [51.0, 3.0, 1.0], [52.0, 2.0, 1.0], [53.0, 3.0, 1.0], [55.0, 2.0, 1.0], [58.0, 1.0, 1.0], [58.0, 2.0, 1.0], [58.0, 3.0, 1.0], [59.0, 2.0, 1.0], [60.0, 3.0, 1.0], [62.0, 1.0, 1.0], [62.0, 2.0, 1.0], [62.0, 3.0, 1.0], [64.0, 2.0, 1.0], [65.0, 1.0, 1.0], [66.0, 3.0, 1.0], [69.0, 1.0, 1.0], [69.0, 3.0, 1.0], [71.0, 2.0, 1.0], [73.0, 1.0, 1.0], [75.0, 3.0, 1.0], [75.0, 1.0, 1.0], [75.0, 2.0, 1.0], [77.0, 2.0, 1.0], [77.0, 3.0, 1.0], [79.0, 1.0, 1.0], [80.0, 2.0, 1.0], [95.0, 3.0, 2.0], [83.0, 1.0, 1.0], [99.0, 3.0, 2.0]]
